WARNING: for repeatability, setting FPU to use double precision
============================[ Problem Statistics ]=============================
|                                                                             |
|  Number of variables:        232558                                         |
|  Number of clauses:          540316                                         |
|  Parse time:                   0.30 s                                       |
|                                                                             |
============================[ Search Statistics ]==============================
| Conflicts |          ORIGINAL         |          LEARNT          | Progress |
|           |    Vars  Clauses Literals |    Limit  Clauses Lit/Cl |          |
===============================================================================
|       100 |  128720   518220  1164360 |   190014      100     12 | 44.650 % |
|       250 |  128720   518220  1164360 |   209015      250     23 | 44.650 % |
|       475 |  128720   518220  1164360 |   229916      475     30 | 44.650 % |
|       812 |  128720   518220  1164360 |   252908      812     51 | 44.650 % |
===============================================================================
restarts              : 7
conflicts             : 893            (975 /sec)
decisions             : 13281          (0.00 % random) (14498 /sec)
propagations          : 2081803        (2272569 /sec)
conflict literals     : 44641          (8.68 % deleted)
Memory used           : 58.00 MB
CPU time              : 0.916057 s

SATISFIABLE
